&control
    disk_io = 'none',
    prefix = 'strainK',
    calculation ='scf',
    outdir = '/global/home/hpc5146/Projects/SmallCellMTPTraining/SmallCellMTPTraining/activeLearning/test/1AtomDFTstrain1.15',
    pseudo_dir = '/global/home/hpc5146'
    tstress = .true.
    tprnfor = .true.
 /
 &system
    ibrav=0,
    nat=1,
    ntyp=1,
    ecutwfc=60,
    occupations='smearing',
    smearing = 'gaussian',
    degauss = 0.01,
 /
 &electrons
    mixing_mode='plain',
    diagonalization='david',
/
 &ions
    ion_dynamics = 'bfgs'
 /

CELL_PARAMETERS (bohr)
5.743931 5.743932 5.743933
-5.743934 5.743935 5.743936
-5.743937 -5.743938 5.743939

ATOMIC_SPECIES
K  39.0983 K.pbe-spn-kjpaw_psl.1.0.0.UPF

ATOMIC_POSITIONS (angstrom)
K  0   0   0

K_POINTS automatic
8 8 8 0 0 0
