units            metal
dimension        3
boundary         p p p


atom_style       atomic
lattice          bcc 5
region           whole block 0 1 0 2 0 3 units lattice
create_box       1  whole
create_atoms     1 region whole
mass             1 39.0983

pair_style mlip      load_from=./test.pot extrapolation_control=true threshold_save=2.1 threshold_break=10  extrapolation_control:save_extrapolative_to=preselected.cfg
pair_coeff * *

neighbor	0.5 bin
neigh_modify    every 1 delay 5 check yes

timestep	0.001

fix		1 all nve
fix		2 all langevin 600 600 0.1 826234 zero yes

thermo_style    custom step temp 
thermo 1000


run             100000
reset_timestep  0
