
&control
   disk_io = 'none',
   prefix = 'diffDFT',
   calculation ='scf',
   outdir = './',
   pseudo_dir = '/global/home/hpc5146',
   tstress = .true.
   tprnfor = .true.
 /
 &system
   ibrav=0,
   nat=2,
   ntyp=1,
   ecutwfc=60,
   ecutrho=300
   occupations='smearing',
   smearing = 'gaussian',
   degauss = 0.01,
 /
 &electrons
   mixing_mode='plain',
   diagonalization='david',
/
 &ions
   ion_dynamics = 'bfgs'
 /
CELL_PARAMETERS (angstrom)
   5.12760176 0.         0.        
  0.         5.12760176 0.        
  0.         0.         5.12760176
ATOMIC_SPECIES
K  39.0983 K.pbe-spn-kjpaw_psl.1.0.0.UPF
ATOMIC_POSITIONS (angstrom)
    K 0.040362 -0.019418 -0.010229 
  K 2.523439 2.583219 2.574030 

K_POINTS automatic
3 3 3 0 0 0
