&control
    disk_io = 'none',
    prefix = 'strainK',
    calculation ='scf',
    outdir = '/global/home/hpc5146/Projects/SmallCellMTPTraining/SmallCellMTPTraining/activeLearning/test/1AtomDFTstrain1.0',
    pseudo_dir = '/global/home/hpc5146'
    tstress = .true.
    tprnfor = .true.
 /
 &system
    ibrav=0,
    nat=1,
    ntyp=1,
    ecutwfc=60,
    occupations='smearing',
    smearing = 'gaussian',
    degauss = 0.01,
 /
 &electrons
    mixing_mode='plain',
    diagonalization='david',
/
 &ions
    ion_dynamics = 'bfgs'
 /

CELL_PARAMETERS (bohr)
4.994731 4.994732 4.994733
-4.994734 4.994735 4.994736
-4.994737 -4.994738 4.994739

ATOMIC_SPECIES
K  39.0983 K.pbe-spn-kjpaw_psl.1.0.0.UPF

ATOMIC_POSITIONS (angstrom)
K  0   0   0

K_POINTS automatic
8 8 8 0 0 0
